010111110010011101111101010011100110011010111001100001111100100000111010111011110101110110100010111111110001001110011000110100111000110101010101000111111110011111110010110111011100110101100101010100001001111100000110110100110111001000101001110101101101110111010101101110101011010010000111100001101101110001010101001111100111111000110000111010010111011111111100111100101101110100000001011100111010011110000001001000100111111010011110101110001100101000101011010111011001101011111000001011111101111111001001110011010000111101001110110101011000100111110010101110110011001000110101100011101111000010000001010000110010100010110111001111101010001001000110011100000011001000010100110011010101111101011100111011101110110001101101001100100011100101001010011000100011011100101000001111100001100101101101001100010100000100101101000100110111011100110100111111010110111011001011110001110100000101101111010000100101111100110111111011111110101110110001111001100100101001110001001001101100110110000001111010000001110001011000100111101110000011010011011111011101110000010111010101111001010110011011010110011101001110000101110000001001110101011111101101110001100010101000